
Gurobi 11.0.1 (win64) logging started Thu Mar 14 11:50:08 2024

Set parameter LogFile to value "res/logfile/roi2alpha3n4log.txt"
Gurobi Optimizer version 11.0.1 build v11.0.1rc0 (win64 - Windows 11.0 (22621.2))

CPU model: AMD Ryzen Threadripper PRO 5975WX 32-Cores, instruction set [SSE2|AVX|AVX2]
Thread count: 32 physical cores, 64 logical processors, using up to 10 threads

Optimize a model with 13531 rows, 6816 columns and 903836 nonzeros
Model fingerprint: 0x43a02795
Variable types: 174 continuous, 6642 integer (6642 binary)
Coefficient statistics:
  Matrix range     [1e-06, 4e+00]
  Objective range  [1e+00, 1e+00]
  Bounds range     [6e-01, 1e+00]
  RHS range        [1e+00, 4e+00]
Found heuristic solution: objective 0.0000000
Presolve removed 13088 rows and 1420 columns
Presolve time: 1.14s
Presolved: 443 rows, 5396 columns, 858890 nonzeros
Crushed 10218 out of 13088 user cuts to presolved model
Variable types: 174 continuous, 5222 integer (5222 binary)

Root relaxation: objective -8.366640e+01, 1404 iterations, 0.06 seconds (0.17 work units)

    Nodes    |    Current Node    |     Objective Bounds      |     Work
 Expl Unexpl |  Obj  Depth IntInf | Incumbent    BestBd   Gap | It/Node Time

     0     0  -83.66640    0   38    0.00000  -83.66640      -     -    1s
H    0     0                     -27.1128641  -83.66640   209%     -    1s
H    0     0                     -54.0647549  -83.66640  54.8%     -    2s
     0     0  -80.22065    0   53  -54.06475  -80.22065  48.4%     -    3s
H    0     0                     -54.2314155  -79.78912  47.1%     -    6s
     0     0  -79.32995    0   59  -54.23142  -79.32995  46.3%     -    6s
     0     0  -79.29832    0   69  -54.23142  -79.29832  46.2%     -    7s
     0     0  -79.29832    0   70  -54.23142  -79.29832  46.2%     -    7s
     0     0  -79.29832    0   74  -54.23142  -79.29832  46.2%     -    7s
     0     0  -79.29832    0   71  -54.23142  -79.29832  46.2%     -    7s
H    0     0                     -58.5519312  -79.29832  35.4%     -    7s
     0     0  -79.29832    0   68  -58.55193  -79.29832  35.4%     -    7s
     0     0  -79.29832    0   81  -58.55193  -79.29832  35.4%     -    7s
     0     0  -79.29832    0   71  -58.55193  -79.29832  35.4%     -    7s
H    0     0                     -60.8546391  -78.73160  29.4%     -    8s
     0     0  -78.73160    0   61  -60.85464  -78.73160  29.4%     -    8s
H    0     0                     -62.0995316  -78.60786  26.6%     -    8s
     0     0  -78.34173    0  102  -62.09953  -78.34173  26.2%     -    8s
     0     0  -78.01069    0  114  -62.09953  -78.01069  25.6%     -    9s
     0     0  -77.83876    0  109  -62.09953  -77.83876  25.3%     -    9s
     0     0  -77.72465    0  110  -62.09953  -77.72465  25.2%     -    9s
     0     0  -77.69452    0  119  -62.09953  -77.69452  25.1%     -    9s
     0     0  -77.68682    0  113  -62.09953  -77.68682  25.1%     -    9s
     0     0  -77.68363    0  116  -62.09953  -77.68363  25.1%     -    9s
     0     0  -77.68272    0  117  -62.09953  -77.68272  25.1%     -    9s
     0     0  -77.23893    0  110  -62.09953  -77.23893  24.4%     -   10s
     0     0  -77.03253    0  123  -62.09953  -77.03253  24.0%     -   11s
     0     0  -76.88759    0  138  -62.09953  -76.88759  23.8%     -   11s
     0     0  -76.69998    0  156  -62.09953  -76.69998  23.5%     -   11s
     0     0  -76.68470    0  161  -62.09953  -76.68470  23.5%     -   11s
     0     0  -76.67845    0  156  -62.09953  -76.67845  23.5%     -   11s
     0     0  -76.67052    0  174  -62.09953  -76.67052  23.5%     -   11s
     0     0  -76.66582    0  168  -62.09953  -76.66582  23.5%     -   11s
     0     0  -76.66184    0  171  -62.09953  -76.66184  23.4%     -   11s
     0     0  -76.66065    0  167  -62.09953  -76.66065  23.4%     -   11s
     0     0  -76.47601    0  172  -62.09953  -76.47601  23.2%     -   13s
     0     0  -76.39667    0  158  -62.09953  -76.39667  23.0%     -   13s
     0     0  -76.35856    0  161  -62.09953  -76.35856  23.0%     -   13s
     0     0  -76.35575    0  142  -62.09953  -76.35575  23.0%     -   13s
     0     0  -76.24465    0  184  -62.09953  -76.24465  22.8%     -   14s
     0     0  -76.23605    0  180  -62.09953  -76.23605  22.8%     -   15s
     0     0  -76.23605    0  171  -62.09953  -76.23605  22.8%     -   16s
     0     0  -76.23478    0  171  -62.09953  -76.23478  22.8%     -   16s
     0     2  -76.23478    0  171  -62.09953  -76.23478  22.8%     -   17s
H   43    46                     -62.1603200  -74.00343  19.1%   112   18s
   332   342  -69.04059   24   26  -62.16032  -74.00343  19.1%  51.6   20s
  1895  1343  -66.50688   16   32  -62.16032  -72.00795  15.8%  33.3   25s
* 2034  1374              30     -63.2084921  -71.75619  13.5%  33.4   26s
  2344  1452  -66.84323   22  171  -63.20849  -71.58328  13.2%  33.4   31s
  2347  1454  -67.17830   13   51  -63.20849  -71.58328  13.2%  33.3   35s
  2363  1465  -67.15535   24  162  -63.20849  -71.58328  13.2%  33.1   40s
  2372  1474  -71.58328   15  142  -63.20849  -71.58328  13.2%  34.5   45s
  3203  1632  -66.56332   27   25  -63.20849  -71.58328  13.2%  35.3   50s
  4494  1961  -69.35624   20   61  -63.20849  -71.58328  13.2%  33.3   55s
  6503  2149  -63.90736   28   29  -63.20849  -70.11624  10.9%  31.6   60s
  8503  2835  -67.59055   34   62  -63.20849  -69.47315  9.91%  30.0   65s
 11213  3704  -64.49210   34   44  -63.20849  -68.84232  8.91%  29.9   70s
 13822  4486     cutoff   36       -63.20849  -68.34394  8.12%  29.7   75s
 16141  5029  -66.05722   42   37  -63.20849  -67.93936  7.48%  29.5   84s
 16835  5101  -66.32856   23   37  -63.20849  -67.80506  7.27%  29.4   85s
 18685  5224  -64.40100   29   22  -63.20849  -67.49192  6.78%  29.5   96s
 19828  5361  -63.56288   36   31  -63.20849  -67.27136  6.43%  29.6  100s
 22578  5228  -64.05868   38   17  -63.20849  -66.87234  5.80%  29.7  105s
 25588  4833  -64.44557   38   37  -63.20849  -66.35504  4.98%  30.0  112s
 27820  4162  -64.80524   40   28  -63.20849  -66.00396  4.42%  30.2  116s
 30014  3118     cutoff   34       -63.20849  -65.56369  3.73%  30.4  120s
 32796  1102     cutoff   41       -63.20849  -64.79787  2.51%  30.5  125s

Cutting planes:
  User: 73
  Gomory: 10
  Cover: 212
  Clique: 19
  MIR: 17
  Flow cover: 34
  Inf proof: 13
  Zero half: 6

Explored 34792 nodes (1041462 simplex iterations) in 126.67 seconds (341.42 work units)
Thread count was 10 (of 64 available processors)

Solution count 9: -63.2085 -62.1603 -62.0995 ... 0
No other solutions better than -63.2085

Optimal solution found (tolerance 1.00e-04)
Best objective -6.320849207710e+01, best bound -6.320849207710e+01, gap 0.0000%

User-callback calls 74680, time in user-callback 0.02 sec
